NAME: instances/10_3.tsp
TYPE: TSP
COMMENT: 10-Staedte in Burma (Zaw Win)
DIMENSION: 10
EDGE_WEIGHT_TYPE: GEO
EDGE_WEIGHT_FORMAT: FUNCTION
DISPLAY_DATA_TYPE: COORD_DISPLAY
NODE_COORD_SECTION
1 27.84 -19.58
2 28.98 21.37
3 -12.28 11.92
4 8.61 18.2
5 -7.42 21.21
6 -5.97 26.4
7 22.35 14.24
8 6.51 -5.74
9 18.0 8.41
10 3.73 17.59
EOF
